benchmark_str_length/p2_10_3-4.dzn
Alphabet = {A,C,G,T};
ns = 10;
nc = 3;
sl = 3;
neighbours = [| I(C),I(C),Null | I(G),I(A),I(T) | I(G),Null,Null | I(A),I(C),Null | I(T),I(T),Null | I(A),Null,Null | I(G),Null,Null | Null,Null,Null | I(T),Null,Null | I(A),Null,Null |];
