benchmark_str_length/p2_10_3-4.txt
{
	"num_strings": 10,
	"alphabet": "ACGT",
	"strings": [
		"CC",
		"GAT",
		"G",
		"AC",
		"TT",
		"A",
		"G",
		"",
		"T",
		"A"
	],
	"str_length":[2,3,1,2,2,1,1,0,1,1]
}